p cnf 17 45
4 -6 -13 0
5 -7 13 0
-1 13 -17 0
-2 -10 -16 0
12 -14 17 0
7 8 -11 0
-1 7 -9 0
-2 4 5 0
1 -10 -16 0
2 -10 16 0
-2 10 -16 0
6 7 17 0
-3 11 -15 0
-1 -4 9 0
-2 -4 -14 0
3 -6 8 0
-1 -2 12 0
-4 6 12 0
-2 -5 12 0
4 -9 -11 0
-4 -5 -10 0
7 9 11 0
6 12 15 0
-6 8 10 0
1 7 -17 0
-1 11 -16 0
2 3 -11 0
5 -6 8 0
-1 5 6 0
12 -14 -17 0
2 7 -17 0
-3 -8 15 0
-4 6 -13 0
-2 -3 4 0
-2 -9 13 0
5 -7 -14 0
-1 7 8 0
-2 4 9 0
3 -9 11 0
1 -5 16 0
-6 8 13 0
2 9 -13 0
3 -6 -13 0
2 -6 17 0
-2 11 -12 0
